3
30
7647
[[ 93, 65,179,253,137,801,800,411,227,726,370,980,575,303,680,997,783,877,580,777,139,798,353,539,524,634,335,873, 29,857],
 [922,774,977,810,681,578,417,393,312,779,381,704,483,343,  5,371,921,749,474,625,227,477,674,889,274,107,693, 92,330,905],
 [228,506,367,168,128,142,897, 13,793,831,737,899,684,437,347,789,758,747,807,378,977,163,687,683,246,458,624, 61,873,283]]
[449,985, 12,258,259,580,838,914,506,986,419,310,363,756,494,358,947,315,341,398,237,587,401,768,718, 64,261,350,517,903]